sat
(= |goto_symex::&92;guard#1| true)
(= |goto_symex::&92;guard#2| false)
(= |memory_model::choice_rf_1_38_0_11_T_0| false)
(= |memory_model::choice_rf_1_38_2_17_T_1| true)
(= |memory_model::choice_rf_1_38_3_18_T_2| false)
(= |memory_model::choice_rf_1_38_4_37_T_3| false)
(= |memory_model::choice_rf_2_16_0_11_T_4| false)
(= |memory_model::choice_rf_2_16_1_39_T_5| false)
(= |memory_model::choice_rf_2_16_3_18_T_6| true)
(= |memory_model::choice_rf_2_16_4_37_T_7| false)
(= |memory_model::choice_rf_3_17_0_11_T_8| true)
(= |memory_model::choice_rf_3_17_1_39_T_9| false)
(= |memory_model::choice_rf_3_17_2_17_T_10| false)
(= |memory_model::choice_rf_3_17_4_37_T_11| false)
(= |memory_model::choice_rf_4_36_0_11_T_12| false)
(= |memory_model::choice_rf_4_36_1_39_T_13| false)
(= |memory_model::choice_rf_4_36_2_17_T_14| true)
(= |memory_model::choice_rf_4_36_3_18_T_15| false)
(= |memory_model::choice_rf_0_47_0_9_T_16| false)
(= |memory_model::choice_rf_0_47_0_43_T_17| true)
(= |memory_model::choice_rf_0_52_0_9_T_18| false)
(= |memory_model::choice_rf_0_52_0_43_T_19| false)
(= |memory_model::choice_rf_0_52_0_48_T_20| true)
(= |memory_model::choice_rf_0_57_0_9_T_21| false)
(= |memory_model::choice_rf_0_57_0_43_T_22| false)
(= |memory_model::choice_rf_0_57_0_48_T_23| false)
(= |memory_model::choice_rf_0_57_0_53_T_24| true)
(= |memory_model::choice_rf_0_81_0_39_F_25| false)
(= |memory_model::choice_rf_0_81_1_23_F_26| false)
(= |memory_model::choice_rf_0_81_2_0_F_27| true)
(= |memory_model::choice_rf_1_22_0_39_F_28| false)
(= |memory_model::choice_rf_1_22_2_0_F_29| false)
(= |memory_model::choice_rf_0_61_0_12_F_30| false)
(= |memory_model::choice_rf_0_61_1_37_F_31| false)
(= |memory_model::choice_rf_0_61_2_15_F_32| true)
(= |memory_model::choice_rf_0_61_3_16_F_33| false)
(= |memory_model::choice_rf_0_61_4_35_F_34| false)
(= |memory_model::choice_rf_1_36_0_12_F_35| false)
(= |memory_model::choice_rf_1_36_2_15_F_36| false)
(= |memory_model::choice_rf_1_36_3_16_F_37| true)
(= |memory_model::choice_rf_1_36_4_35_F_38| false)
(= |memory_model::choice_rf_2_14_0_12_F_39| false)
(= |memory_model::choice_rf_2_14_1_37_F_40| false)
(= |memory_model::choice_rf_2_14_3_16_F_41| false)
(= |memory_model::choice_rf_2_14_4_35_F_42| true)
(= |memory_model::choice_rf_3_15_0_12_F_43| true)
(= |memory_model::choice_rf_3_15_1_37_F_44| false)
(= |memory_model::choice_rf_3_15_2_15_F_45| false)
(= |memory_model::choice_rf_3_15_4_35_F_46| false)
(= |memory_model::choice_rf_4_34_0_12_F_47| false)
(= |memory_model::choice_rf_4_34_1_37_F_48| true)
(= |memory_model::choice_rf_4_34_2_15_F_49| false)
(= |memory_model::choice_rf_4_34_3_16_F_50| false)
(= |memory_model::choice_rf_0_79_0_13_F_51| false)
(= |memory_model::choice_rf_0_79_3_2_F_52| true)
(= |memory_model::choice_rf_0_78_0_14_F_53| false)
(= |memory_model::choice_rf_0_78_4_2_F_54| true)
(= |memory_model::choice_rf_0_77_0_15_F_55| false)
(= |memory_model::choice_rf_0_77_4_10_F_56| true)
(= |memory_model::choice_rf_0_64_0_16_F_57| false)
(= |memory_model::choice_rf_0_64_1_35_F_58| true)
(= |memory_model::choice_rf_0_64_2_13_F_59| false)
(= |memory_model::choice_rf_0_64_3_14_F_60| false)
(= |memory_model::choice_rf_0_64_4_16_F_61| false)
(= |memory_model::choice_rf_0_64_4_33_F_62| false)
(= |memory_model::choice_rf_1_24_0_16_F_63| false)
(= |memory_model::choice_rf_1_24_0_75_F_64| false)
(= |memory_model::choice_rf_1_24_2_13_F_65| false)
(= |memory_model::choice_rf_1_24_3_14_F_66| false)
(= |memory_model::choice_rf_1_24_4_16_F_67| false)
(= |memory_model::choice_rf_1_24_4_33_F_68| true)
(= |memory_model::choice_rf_2_2_0_16_F_69| true)
(= |memory_model::choice_rf_2_2_0_75_F_70| false)
(= |memory_model::choice_rf_2_2_1_35_F_71| false)
(= |memory_model::choice_rf_2_2_3_14_F_72| false)
(= |memory_model::choice_rf_2_2_4_16_F_73| false)
(= |memory_model::choice_rf_2_2_4_33_F_74| false)
(= |memory_model::choice_rf_3_3_0_16_F_75| false)
(= |memory_model::choice_rf_3_3_0_75_F_76| false)
(= |memory_model::choice_rf_3_3_1_35_F_77| false)
(= |memory_model::choice_rf_3_3_2_13_F_78| false)
(= |memory_model::choice_rf_3_3_4_16_F_79| true)
(= |memory_model::choice_rf_3_3_4_33_F_80| false)
(= |memory_model::choice_rf_4_9_0_16_F_81| false)
(= |memory_model::choice_rf_4_9_0_75_F_82| false)
(= |memory_model::choice_rf_4_9_1_35_F_83| false)
(= |memory_model::choice_rf_4_9_2_13_F_84| true)
(= |memory_model::choice_rf_4_9_3_14_F_85| false)
(= |memory_model::choice_rf_4_22_0_16_F_86| false)
(= |memory_model::choice_rf_4_22_0_75_F_87| false)
(= |memory_model::choice_rf_4_22_1_35_F_88| false)
(= |memory_model::choice_rf_4_22_2_13_F_89| false)
(= |memory_model::choice_rf_4_22_3_14_F_90| true)
(= |memory_model::choice_rf_4_22_4_16_F_91| false)
(= |memory_model::choice_rf_0_69_0_19_F_92| true)
(= |memory_model::choice_rf_1_9_0_19_F_93| true)
(= |memory_model::choice_rf_1_9_0_72_F_94| false)
(= |memory_model::choice_rf_1_3_0_20_F_95| true)
(= |memory_model::choice_rf_1_29_0_20_F_96| false)
(= |memory_model::choice_rf_1_29_1_12_F_97| true)
(= |memory_model::choice_rf_1_2_0_21_F_98| true)
(= |memory_model::choice_rf_1_2_2_10_F_99| false)
(= |memory_model::choice_rf_2_7_0_21_F_100| true)
(= |memory_model::choice_rf_1_8_0_22_F_101| true)
(= |memory_model::choice_rf_1_8_3_11_F_102| false)
(= |memory_model::choice_rf_3_8_0_22_F_103| true)
(= |memory_model::choice_rf_1_7_0_23_F_104| true)
(= |memory_model::choice_rf_1_7_4_12_F_105| false)
(= |memory_model::choice_rf_1_7_4_30_F_106| false)
(= |memory_model::choice_rf_4_7_0_23_F_107| true)
(= |memory_model::choice_rf_4_27_0_23_F_108| false)
(= |memory_model::choice_rf_4_27_4_12_F_109| true)
(= |memory_model::choice_rf_0_66_0_24_F_110| false)
(= |memory_model::choice_rf_0_66_1_17_F_111| true)
(= |memory_model::choice_rf_1_6_0_24_F_112| false)
(= |memory_model::choice_rf_1_6_0_71_F_113| false)
(= |memory_model::choice_rf_1_5_0_25_F_114| false)
(= |memory_model::choice_rf_1_26_0_25_F_115| false)
(= |memory_model::choice_rf_1_26_1_16_F_116| true)
(= |memory_model::choice_rf_1_1_0_26_F_117| false)
(= |memory_model::choice_rf_1_1_2_9_F_118| false)
(= |memory_model::choice_rf_2_4_0_26_F_119| false)
(= |memory_model::choice_rf_2_4_1_14_F_120| true)
(= |memory_model::choice_rf_1_0_0_27_F_121| false)
(= |memory_model::choice_rf_1_0_3_10_F_122| false)
(= |memory_model::choice_rf_3_5_0_27_F_123| false)
(= |memory_model::choice_rf_3_5_1_13_F_124| true)
(= |memory_model::choice_rf_1_4_0_28_F_125| false)
(= |memory_model::choice_rf_1_4_4_11_F_126| false)
(= |memory_model::choice_rf_1_4_4_29_F_127| false)
(= |memory_model::choice_rf_4_5_0_28_F_128| false)
(= |memory_model::choice_rf_4_5_1_15_F_129| true)
(= |memory_model::choice_rf_4_24_0_28_F_130| false)
(= |memory_model::choice_rf_4_24_1_15_F_131| false)
(= |memory_model::choice_rf_4_24_4_11_F_132| true)
(= |memory_model::choice_rf_0_68_0_31_F_133| false)
(= |memory_model::choice_rf_0_68_1_20_F_134| false)
(= |memory_model::choice_rf_0_68_4_15_F_135| true)
(= |memory_model::choice_rf_1_11_0_31_F_136| true)
(= |memory_model::choice_rf_1_11_4_15_F_137| false)
(= |memory_model::choice_rf_1_28_0_31_F_138| false)
(= |memory_model::choice_rf_1_28_1_20_F_139| false)
(= |memory_model::choice_rf_1_28_4_15_F_140| true)
(= |memory_model::choice_rf_2_6_0_31_F_141| false)
(= |memory_model::choice_rf_2_6_1_20_F_142| true)
(= |memory_model::choice_rf_2_6_4_15_F_143| false)
(= |memory_model::choice_rf_3_7_0_31_F_144| false)
(= |memory_model::choice_rf_3_7_1_20_F_145| false)
(= |memory_model::choice_rf_3_7_4_15_F_146| true)
(= |memory_model::choice_rf_4_4_0_31_F_147| false)
(= |memory_model::choice_rf_4_4_1_20_F_148| true)
(= |memory_model::choice_rf_4_26_0_31_F_149| false)
(= |memory_model::choice_rf_4_26_1_20_F_150| false)
(= |memory_model::choice_rf_4_26_4_15_F_151| true)
(= |memory_model::choice_rf_0_70_0_32_F_152| false)
(= |memory_model::choice_rf_0_70_1_18_F_153| false)
(= |memory_model::choice_rf_0_70_1_34_F_154| true)
(= |memory_model::choice_rf_0_70_2_12_F_155| false)
(= |memory_model::choice_rf_0_70_3_13_F_156| false)
(= |memory_model::choice_rf_0_70_4_13_F_157| false)
(= |memory_model::choice_rf_0_70_4_32_F_158| false)
(= |memory_model::choice_rf_1_10_0_32_F_159| true)
(= |memory_model::choice_rf_1_10_0_74_F_160| false)
(= |memory_model::choice_rf_1_10_2_12_F_161| false)
(= |memory_model::choice_rf_1_10_3_13_F_162| false)
(= |memory_model::choice_rf_1_10_4_13_F_163| false)
(= |memory_model::choice_rf_1_10_4_32_F_164| false)
(= |memory_model::choice_rf_1_30_0_32_F_165| false)
(= |memory_model::choice_rf_1_30_0_74_F_166| false)
(= |memory_model::choice_rf_1_30_1_18_F_167| false)
(= |memory_model::choice_rf_1_30_2_12_F_168| false)
(= |memory_model::choice_rf_1_30_3_13_F_169| false)
(= |memory_model::choice_rf_1_30_4_13_F_170| false)
(= |memory_model::choice_rf_1_30_4_32_F_171| true)
(= |memory_model::choice_rf_2_8_0_32_F_172| false)
(= |memory_model::choice_rf_2_8_0_74_F_173| false)
(= |memory_model::choice_rf_2_8_1_18_F_174| true)
(= |memory_model::choice_rf_2_8_1_34_F_175| false)
(= |memory_model::choice_rf_2_8_3_13_F_176| false)
(= |memory_model::choice_rf_2_8_4_13_F_177| false)
(= |memory_model::choice_rf_2_8_4_32_F_178| false)
(= |memory_model::choice_rf_3_9_0_32_F_179| false)
(= |memory_model::choice_rf_3_9_0_74_F_180| false)
(= |memory_model::choice_rf_3_9_1_18_F_181| false)
(= |memory_model::choice_rf_3_9_1_34_F_182| false)
(= |memory_model::choice_rf_3_9_2_12_F_183| false)
(= |memory_model::choice_rf_3_9_4_13_F_184| true)
(= |memory_model::choice_rf_3_9_4_32_F_185| false)
(= |memory_model::choice_rf_4_8_0_32_F_186| false)
(= |memory_model::choice_rf_4_8_0_74_F_187| false)
(= |memory_model::choice_rf_4_8_1_18_F_188| false)
(= |memory_model::choice_rf_4_8_1_34_F_189| false)
(= |memory_model::choice_rf_4_8_2_12_F_190| true)
(= |memory_model::choice_rf_4_8_3_13_F_191| false)
(= |memory_model::choice_rf_4_28_0_32_F_192| false)
(= |memory_model::choice_rf_4_28_0_74_F_193| false)
(= |memory_model::choice_rf_4_28_1_18_F_194| false)
(= |memory_model::choice_rf_4_28_1_34_F_195| false)
(= |memory_model::choice_rf_4_28_2_12_F_196| false)
(= |memory_model::choice_rf_4_28_3_13_F_197| true)
(= |memory_model::choice_rf_4_28_4_13_F_198| false)
(= |memory_model::choice_rf_0_65_0_33_F_199| false)
(= |memory_model::choice_rf_0_65_1_21_F_200| false)
(= |memory_model::choice_rf_0_65_4_14_F_201| true)
(= |memory_model::choice_rf_1_25_0_33_F_202| false)
(= |memory_model::choice_rf_1_25_1_21_F_203| false)
(= |memory_model::choice_rf_1_25_4_14_F_204| true)
(= |memory_model::choice_rf_2_3_0_33_F_205| false)
(= |memory_model::choice_rf_2_3_1_21_F_206| true)
(= |memory_model::choice_rf_2_3_4_14_F_207| false)
(= |memory_model::choice_rf_3_4_0_33_F_208| false)
(= |memory_model::choice_rf_3_4_1_21_F_209| false)
(= |memory_model::choice_rf_3_4_4_14_F_210| true)
(= |memory_model::choice_rf_4_3_0_33_F_211| false)
(= |memory_model::choice_rf_4_3_1_21_F_212| true)
(= |memory_model::choice_rf_4_23_0_33_F_213| false)
(= |memory_model::choice_rf_4_23_1_21_F_214| false)
(= |memory_model::choice_rf_4_23_4_14_F_215| true)
(= |memory_model::choice_rf_0_67_0_34_F_216| false)
(= |memory_model::choice_rf_0_67_1_19_F_217| false)
(= |memory_model::choice_rf_0_67_1_33_F_218| true)
(= |memory_model::choice_rf_0_67_2_11_F_219| false)
(= |memory_model::choice_rf_0_67_3_12_F_220| false)
(= |memory_model::choice_rf_0_67_4_20_F_221| false)
(= |memory_model::choice_rf_0_67_4_31_F_222| false)
(= |memory_model::choice_rf_1_27_0_34_F_223| false)
(= |memory_model::choice_rf_1_27_0_73_F_224| false)
(= |memory_model::choice_rf_1_27_1_19_F_225| false)
(= |memory_model::choice_rf_1_27_2_11_F_226| false)
(= |memory_model::choice_rf_1_27_3_12_F_227| false)
(= |memory_model::choice_rf_1_27_4_20_F_228| false)
(= |memory_model::choice_rf_1_27_4_31_F_229| true)
(= |memory_model::choice_rf_2_5_0_34_F_230| false)
(= |memory_model::choice_rf_2_5_0_73_F_231| false)
(= |memory_model::choice_rf_2_5_1_19_F_232| true)
(= |memory_model::choice_rf_2_5_1_33_F_233| false)
(= |memory_model::choice_rf_2_5_3_12_F_234| false)
(= |memory_model::choice_rf_2_5_4_20_F_235| false)
(= |memory_model::choice_rf_2_5_4_31_F_236| false)
(= |memory_model::choice_rf_3_6_0_34_F_237| false)
(= |memory_model::choice_rf_3_6_0_73_F_238| false)
(= |memory_model::choice_rf_3_6_1_19_F_239| false)
(= |memory_model::choice_rf_3_6_1_33_F_240| false)
(= |memory_model::choice_rf_3_6_2_11_F_241| false)
(= |memory_model::choice_rf_3_6_4_20_F_242| true)
(= |memory_model::choice_rf_3_6_4_31_F_243| false)
(= |memory_model::choice_rf_4_6_0_34_F_244| false)
(= |memory_model::choice_rf_4_6_0_73_F_245| false)
(= |memory_model::choice_rf_4_6_1_19_F_246| false)
(= |memory_model::choice_rf_4_6_1_33_F_247| false)
(= |memory_model::choice_rf_4_6_2_11_F_248| true)
(= |memory_model::choice_rf_4_6_3_12_F_249| false)
(= |memory_model::choice_rf_4_25_0_34_F_250| false)
(= |memory_model::choice_rf_4_25_0_73_F_251| false)
(= |memory_model::choice_rf_4_25_1_19_F_252| false)
(= |memory_model::choice_rf_4_25_1_33_F_253| false)
(= |memory_model::choice_rf_4_25_2_11_F_254| false)
(= |memory_model::choice_rf_4_25_3_12_F_255| true)
(= |memory_model::choice_rf_4_25_4_20_F_256| false)
(= |memory_model::choice_rf_0_63_0_35_F_257| false)
(= |memory_model::choice_rf_0_63_0_62_F_258| true)
(= |memory_model::choice_rf_0_76_0_36_F_259| false)
(= |memory_model::choice_rf_0_83_0_36_F_260| false)
(= |memory_model::choice_rf_0_83_0_82_F_261| true)
(= |memory_model::choice_rf_0_84_0_36_F_262| false)
(= |memory_model::choice_rf_0_84_0_82_F_263| true)
(= |memory_model::choice_rf_0_80_0_40_F_264| false)
(= |memory_model::choice_rf_0_80_2_1_F_265| false)
(= |memory_model::choice_rf_0_80_3_0_F_266| true)
(= |memory_model::choice_rf_3_1_0_41_F_267| true)
(= |memory_model::choice_rf_3_1_4_0_F_268| false)
(= |memory_model::choice_rf_4_1_0_41_F_269| false)
(= |memory_model::choice_rf_4_1_4_0_F_270| true)
(= |memory_model::choice_ws-ext_0_11_1_39_T_271| true)
(= |memory_model::choice_ws-ext_0_11_2_17_T_272| true)
(= |memory_model::choice_ws-ext_0_11_3_18_T_273| true)
(= |memory_model::choice_ws-ext_0_11_4_37_T_274| true)
(= |memory_model::choice_ws-ext_1_39_2_17_T_275| false)
(= |memory_model::choice_ws-ext_1_39_3_18_T_276| false)
(= |memory_model::choice_ws-ext_1_39_4_37_T_277| false)
(= |memory_model::choice_ws-ext_2_17_3_18_T_278| false)
(= |memory_model::choice_ws-ext_2_17_4_37_T_279| true)
(= |memory_model::choice_ws-ext_3_18_4_37_T_280| true)
(= |memory_model::choice_ws-ext_0_39_1_23_F_281| true)
(= |memory_model::choice_ws-ext_0_39_2_0_F_282| true)
(= |memory_model::choice_ws-ext_1_23_2_0_F_283| true)
(= |memory_model::choice_ws-ext_0_12_1_37_F_284| true)
(= |memory_model::choice_ws-ext_0_12_2_15_F_285| true)
(= |memory_model::choice_ws-ext_0_12_3_16_F_286| true)
(= |memory_model::choice_ws-ext_0_12_4_35_F_287| true)
(= |memory_model::choice_ws-ext_1_37_2_15_F_288| true)
(= |memory_model::choice_ws-ext_1_37_3_16_F_289| false)
(= |memory_model::choice_ws-ext_1_37_4_35_F_290| true)
(= |memory_model::choice_ws-ext_2_15_3_16_F_291| false)
(= |memory_model::choice_ws-ext_2_15_4_35_F_292| false)
(= |memory_model::choice_ws-ext_3_16_4_35_F_293| true)
(= |memory_model::choice_ws-ext_0_13_3_2_F_294| true)
(= |memory_model::choice_ws-ext_0_14_4_2_F_295| true)
(= |memory_model::choice_ws-ext_0_15_4_10_F_296| true)
(= |memory_model::choice_ws-ext_0_16_1_35_F_297| true)
(= |memory_model::choice_ws-ext_0_16_2_13_F_298| true)
(= |memory_model::choice_ws-ext_0_16_3_14_F_299| true)
(= |memory_model::choice_ws-ext_0_16_4_16_F_300| true)
(= |memory_model::choice_ws-ext_0_16_4_33_F_301| true)
(= |memory_model::choice_ws-ext_0_75_1_35_F_302| false)
(= |memory_model::choice_ws-ext_0_75_2_13_F_303| false)
(= |memory_model::choice_ws-ext_0_75_3_14_F_304| false)
(= |memory_model::choice_ws-ext_0_75_4_16_F_305| false)
(= |memory_model::choice_ws-ext_0_75_4_33_F_306| false)
(= |memory_model::choice_ws-ext_1_35_2_13_F_307| false)
(= |memory_model::choice_ws-ext_1_35_3_14_F_308| false)
(= |memory_model::choice_ws-ext_1_35_4_16_F_309| false)
(= |memory_model::choice_ws-ext_1_35_4_33_F_310| false)
(= |memory_model::choice_ws-ext_2_13_3_14_F_311| true)
(= |memory_model::choice_ws-ext_2_13_4_16_F_312| true)
(= |memory_model::choice_ws-ext_2_13_4_33_F_313| true)
(= |memory_model::choice_ws-ext_3_14_4_16_F_314| false)
(= |memory_model::choice_ws-ext_3_14_4_33_F_315| true)
(= |memory_model::choice_ws-ext_0_17_4_17_F_316| true)
(= |memory_model::choice_ws-ext_0_18_4_18_F_317| true)
(= |memory_model::choice_ws-ext_0_20_1_12_F_318| true)
(= |memory_model::choice_ws-ext_0_20_1_32_F_319| true)
(= |memory_model::choice_ws-ext_0_21_2_10_F_320| true)
(= |memory_model::choice_ws-ext_0_22_3_11_F_321| true)
(= |memory_model::choice_ws-ext_0_23_4_12_F_322| true)
(= |memory_model::choice_ws-ext_0_23_4_30_F_323| true)
(= |memory_model::choice_ws-ext_0_24_1_17_F_324| true)
(= |memory_model::choice_ws-ext_0_71_1_17_F_325| false)
(= |memory_model::choice_ws-ext_0_25_1_16_F_326| true)
(= |memory_model::choice_ws-ext_0_25_1_31_F_327| true)
(= |memory_model::choice_ws-ext_0_26_1_14_F_328| true)
(= |memory_model::choice_ws-ext_0_26_2_9_F_329| true)
(= |memory_model::choice_ws-ext_1_14_2_9_F_330| true)
(= |memory_model::choice_ws-ext_0_27_1_13_F_331| true)
(= |memory_model::choice_ws-ext_0_27_3_10_F_332| true)
(= |memory_model::choice_ws-ext_1_13_3_10_F_333| true)
(= |memory_model::choice_ws-ext_0_28_1_15_F_334| true)
(= |memory_model::choice_ws-ext_0_28_4_11_F_335| true)
(= |memory_model::choice_ws-ext_0_28_4_29_F_336| true)
(= |memory_model::choice_ws-ext_1_15_4_11_F_337| true)
(= |memory_model::choice_ws-ext_1_15_4_29_F_338| true)
(= |memory_model::choice_ws-ext_0_31_1_20_F_339| true)
(= |memory_model::choice_ws-ext_0_31_4_15_F_340| true)
(= |memory_model::choice_ws-ext_1_20_4_15_F_341| true)
(= |memory_model::choice_ws-ext_0_32_1_18_F_342| true)
(= |memory_model::choice_ws-ext_0_32_1_34_F_343| true)
(= |memory_model::choice_ws-ext_0_32_2_12_F_344| true)
(= |memory_model::choice_ws-ext_0_32_3_13_F_345| true)
(= |memory_model::choice_ws-ext_0_32_4_13_F_346| true)
(= |memory_model::choice_ws-ext_0_32_4_32_F_347| true)
(= |memory_model::choice_ws-ext_0_74_1_18_F_348| false)
(= |memory_model::choice_ws-ext_0_74_1_34_F_349| false)
(= |memory_model::choice_ws-ext_0_74_2_12_F_350| false)
(= |memory_model::choice_ws-ext_0_74_3_13_F_351| false)
(= |memory_model::choice_ws-ext_0_74_4_13_F_352| false)
(= |memory_model::choice_ws-ext_0_74_4_32_F_353| false)
(= |memory_model::choice_ws-ext_1_18_2_12_F_354| true)
(= |memory_model::choice_ws-ext_1_18_3_13_F_355| true)
(= |memory_model::choice_ws-ext_1_18_4_13_F_356| true)
(= |memory_model::choice_ws-ext_1_18_4_32_F_357| true)
(= |memory_model::choice_ws-ext_1_34_2_12_F_358| false)
(= |memory_model::choice_ws-ext_1_34_3_13_F_359| false)
(= |memory_model::choice_ws-ext_1_34_4_13_F_360| false)
(= |memory_model::choice_ws-ext_1_34_4_32_F_361| false)
(= |memory_model::choice_ws-ext_2_12_3_13_F_362| true)
(= |memory_model::choice_ws-ext_2_12_4_13_F_363| true)
(= |memory_model::choice_ws-ext_2_12_4_32_F_364| true)
(= |memory_model::choice_ws-ext_3_13_4_13_F_365| false)
(= |memory_model::choice_ws-ext_3_13_4_32_F_366| true)
(= |memory_model::choice_ws-ext_0_33_1_21_F_367| true)
(= |memory_model::choice_ws-ext_0_33_4_14_F_368| true)
(= |memory_model::choice_ws-ext_1_21_4_14_F_369| true)
(= |memory_model::choice_ws-ext_0_34_1_19_F_370| true)
(= |memory_model::choice_ws-ext_0_34_1_33_F_371| true)
(= |memory_model::choice_ws-ext_0_34_2_11_F_372| true)
(= |memory_model::choice_ws-ext_0_34_3_12_F_373| true)
(= |memory_model::choice_ws-ext_0_34_4_20_F_374| true)
(= |memory_model::choice_ws-ext_0_34_4_31_F_375| true)
(= |memory_model::choice_ws-ext_0_73_1_19_F_376| false)
(= |memory_model::choice_ws-ext_0_73_1_33_F_377| false)
(= |memory_model::choice_ws-ext_0_73_2_11_F_378| false)
(= |memory_model::choice_ws-ext_0_73_3_12_F_379| false)
(= |memory_model::choice_ws-ext_0_73_4_20_F_380| false)
(= |memory_model::choice_ws-ext_0_73_4_31_F_381| false)
(= |memory_model::choice_ws-ext_1_19_2_11_F_382| true)
(= |memory_model::choice_ws-ext_1_19_3_12_F_383| true)
(= |memory_model::choice_ws-ext_1_19_4_20_F_384| true)
(= |memory_model::choice_ws-ext_1_19_4_31_F_385| true)
(= |memory_model::choice_ws-ext_1_33_2_11_F_386| false)
(= |memory_model::choice_ws-ext_1_33_3_12_F_387| false)
(= |memory_model::choice_ws-ext_1_33_4_20_F_388| false)
(= |memory_model::choice_ws-ext_1_33_4_31_F_389| false)
(= |memory_model::choice_ws-ext_2_11_3_12_F_390| true)
(= |memory_model::choice_ws-ext_2_11_4_20_F_391| true)
(= |memory_model::choice_ws-ext_2_11_4_31_F_392| true)
(= |memory_model::choice_ws-ext_3_12_4_20_F_393| false)
(= |memory_model::choice_ws-ext_3_12_4_31_F_394| true)
(= |memory_model::choice_ws-ext_0_40_2_1_F_395| true)
(= |memory_model::choice_ws-ext_0_40_3_0_F_396| true)
(= |memory_model::choice_ws-ext_2_1_3_0_F_397| true)
(= |memory_model::choice_ws-ext_0_41_4_0_F_398| true)
(= |memory_model::choice_ws-ext_0_37_4_21_F_399| true)
(= |memory_model::choice_ws-ext_0_38_4_19_F_400| true)
(= |main$tmp_guard0#3| #b00000001)
(= |__CPROVER_next_thread_id#3| #b00000000000000000000000000000001)
(= |__CPROVER_next_thread_id#6| #b00000000000000000000000000000010)
(= |__CPROVER_next_thread_id#9| #b00000000000000000000000000000011)
(= |__unbuffered_cnt#2| #b00000000000000000000000000000100)
(= |a$w_buff0_used#2| #b00000000)
(= |a$r_buff0_thd0#2| #b00000000)
(= |a$w_buff0#2| #b00000000000000000000000000000001)
(= |a$w_buff1_used#2| #b00000000)
(= |a$r_buff1_thd0#2| #b00000000)
(= |a$w_buff1#2| #b00000000000000000000000000000000)
(= |a#2| #b00000000000000000000000000000001)
(= |a#4| #b00000000000000000000000000000001)
(= |a$w_buff0_used#6| #b00000000)
(= |a$w_buff1_used#6| #b00000000)
(= |a$r_buff0_thd0#8| #b00000000)
(= |a$r_buff1_thd0#7| #b00000000)
(= |x#2| #b00000000000000000000000000000010)
(= |y#2| #b00000000000000000000000000000010)
(= |__unbuffered_p2_EAX#2| #b00000000000000000000000000000000)
(= |__unbuffered_p3_EAX#2| #b00000000000000000000000000000001)
(= |__unbuffered_p3_EBX#2| #b00000000000000000000000000000000)
(= |main$tmp_guard1#2| #b00000000)
(= |main$tmp_guard1#3| #b10000000)
(= |main$tmp_guard1#6| #b00000000)
(= |pthread_create::1::this_thread_id!1@0#0| #b10000000000000000000000000000000)
(= |a$w_buff0#4| #b00000000000000000000000000000000)
(= |a$w_buff0_used#11| #b00000000)
(= |a$r_buff0_thd0#11| #b00000000)
(= |a$r_buff1_thd0#9| #b00000000)
(= |a$r_buff1_thd0#10| #b10000000)
(= |a$r_buff0_thd1#2| #b00000000)
(= |a$r_buff1_thd1#2| #b00000000)
(= |a$r_buff1_thd1#3| #b10000000)
(= |a$r_buff0_thd2#2| #b00000000)
(= |a$r_buff1_thd2#2| #b00000000)
(= |a$r_buff1_thd2#3| #b10000000)
(= |a$r_buff0_thd3#2| #b00000000)
(= |a$r_buff1_thd3#2| #b00000000)
(= |a$r_buff1_thd3#3| #b10000000)
(= |a$r_buff0_thd4#2| #b00000000)
(= |a$r_buff1_thd4#2| #b00000000)
(= |a$r_buff1_thd4#3| #b00000000)
(= |a$r_buff0_thd1#4| #b00000001)
(= |x#4| #b00000000000000000000000000000001)
(= |x#5| #b10000000000000000000000000000000)
(= |a$w_buff0_used#14| #b00000001)
(= |a$r_buff0_thd1#6| #b00000001)
(= |a$w_buff0#7| #b00000000000000000000000000000001)
(= |a$w_buff1_used#10| #b00000000)
(= |a$r_buff1_thd1#5| #b00000000)
(= |a$w_buff1#5| #b00000000000000000000000000000000)
(= |a#6| #b00000000000000000000000000000000)
(= |a#8| #b00000000000000000000000000000001)
(= |a$w_buff0_used#18| #b00000000)
(= |a$w_buff1_used#14| #b00000000)
(= |a$r_buff0_thd1#12| #b00000001)
(= |a$r_buff1_thd1#10| #b00000000)
(= |__unbuffered_cnt#4| #b00000000000000000000000000000001)
(= |__unbuffered_cnt#6| #b00000000000000000000000000000010)
(= |pthread_create::1::this_thread_id!2@0#0| #b00000000000000000000000000000000)
(= |a$w_buff0_used#23| #b00000001)
(= |a$r_buff0_thd2#4| #b00000000)
(= |a$w_buff0#9| #b00000000000000000000000000000001)
(= |a$w_buff1_used#17| #b00000000)
(= |a$r_buff1_thd2#5| #b00000000)
(= |a$w_buff1#7| #b00000000000000000000000000000000)
(= |a#10| #b00000000000000000000000000000000)
(= |__unbuffered_cnt#8| #b00000000000000000000000000000011)
(= |pthread_create::1::this_thread_id!3@0#0| #b00000000000000000000000000000000)
(= |z#2| #b00000000000000000000000000000000)
(= |a$w_buff0_used#26| #b00000001)
(= |a$r_buff0_thd3#4| #b00000000)
(= |a$w_buff0#11| #b00000000000000000000000000000001)
(= |a$w_buff1_used#20| #b00000000)
(= |a$r_buff1_thd3#5| #b00000000)
(= |a$w_buff1#9| #b00000000000000000000000000000000)
(= |a#13| #b00000000000000000000000000000000)
(= |__unbuffered_cnt#11| #b00000000000000000000000000000000)
(= |pthread_create::1::this_thread_id!4@0#0| #b00000000000000000000000000000000)
(= |z#5| #b00000000000000000000000000000001)
(= |nondet_symex::nondet4| #b10000000000000000000000000000000)
(= |a#16| #b00000000000000000000000000000000)
(= |a$w_buff0_used#29| #b00000001)
(= |a$r_buff0_thd4#4| #b00000000)
(= |a$w_buff1_used#23| #b00000000)
(= |a$r_buff1_thd4#5| #b00000000)
(= |a$w_buff0#13| #b00000000000000000000000000000001)
(= |a$w_buff1#11| #b00000000000000000000000000000000)
(= |a$w_buff0_used#32| #b00000001)
(= |a$r_buff0_thd4#7| #b00000000)
(= |a$w_buff0#16| #b00000000000000000000000000000001)
(= |a$w_buff1_used#26| #b00000000)
(= |a$r_buff1_thd4#8| #b00000000)
(= |a$w_buff1#14| #b00000000000000000000000000000000)
(= |a#20| #b00000000000000000000000000000000)
(= |__unbuffered_cnt#14| #b00000000000000000000000000000010)
(= |__CPROVER_threads_exited#1$wclk$8| #b00011000)
(= |__CPROVER_threads_exited#2$rclk$8| #b11111100)
(= |__CPROVER_threads_exited#5$wclk$8| #b11111011)
(= |__CPROVER_threads_exited#7$wclk$8| #b11110111)
(= |__CPROVER_threads_exited#9$wclk$8| #b11111110)
(= |__CPROVER_threads_exited#4$rclk$8| #b11111010)
(= |__CPROVER_threads_exited#3$wclk$8| #b11111111)
(= |__CPROVER_threads_exited#6$rclk$8| #b11110110)
(= |__CPROVER_threads_exited#8$rclk$8| #b11111101)
(= |x#6$wclk$8| #b10111001)
(= |x#2$rclk$8| #b11111101)
(= |x#7$wclk$8| #b10111010)
(= |x#1$wclk$8| #b10001101)
(= |x#5$rclk$8| #b10111001)
(= |__unbuffered_cnt#7$wclk$8| #b11110010)
(= |__unbuffered_cnt#2$rclk$8| #b11111010)
(= |__unbuffered_cnt#10$wclk$8| #b11111001)
(= |__unbuffered_cnt#13$wclk$8| #b11110001)
(= |__unbuffered_cnt#16$wclk$8| #b11111000)
(= |__unbuffered_cnt#1$wclk$8| #b00011001)
(= |__unbuffered_cnt#4$rclk$8| #b11110010)
(= |__unbuffered_cnt#8$rclk$8| #b11111001)
(= |__unbuffered_cnt#11$rclk$8| #b11110001)
(= |__unbuffered_cnt#14$rclk$8| #b11111000)
(= |__unbuffered_p2_EAX#4$wclk$8| #b11011100)
(= |__unbuffered_p2_EAX#2$rclk$8| #b11111101)
(= |__unbuffered_p3_EAX#4$wclk$8| #b11101010)
(= |__unbuffered_p3_EAX#2$rclk$8| #b11111101)
(= |__unbuffered_p3_EBX#4$wclk$8| #b11101011)
(= |__unbuffered_p3_EBX#2$rclk$8| #b11111101)
(= |a#9$wclk$8| #b11110001)
(= |a#2$rclk$8| #b11111100)
(= |a#12$wclk$8| #b11011010)
(= |a#15$wclk$8| #b11101101)
(= |a#19$wclk$8| #b11101011)
(= |a#22$wclk$8| #b11110000)
(= |a#1$wclk$8| #b00011101)
(= |a#6$rclk$8| #b11110001)
(= |a#5$wclk$8| #b11111100)
(= |a#10$rclk$8| #b11011010)
(= |a#13$rclk$8| #b11101101)
(= |a#16$rclk$8| #b11101011)
(= |a#20$rclk$8| #b11110000)
(= |a$r_buff0_thd0#1$wclk$8| #b00101110)
(= |a$r_buff0_thd0#11$rclk$8| #b10111000)
(= |a$r_buff0_thd0#10$wclk$8| #b11111100)
(= |a$r_buff0_thd1#1$wclk$8| #b00101111)
(= |a$r_buff0_thd1#2$rclk$8| #b10111000)
(= |a$r_buff0_thd1#6$rclk$8| #b11110001)
(= |a$r_buff0_thd2#1$wclk$8| #b00110000)
(= |a$r_buff0_thd2#2$rclk$8| #b10111000)
(= |a$r_buff0_thd2#6$wclk$8| #b11011010)
(= |a$r_buff0_thd2#4$rclk$8| #b11011010)
(= |a$r_buff0_thd3#1$wclk$8| #b00110001)
(= |a$r_buff0_thd3#2$rclk$8| #b10111000)
(= |a$r_buff0_thd3#6$wclk$8| #b11101101)
(= |a$r_buff0_thd3#4$rclk$8| #b11101101)
(= |a$r_buff0_thd4#1$wclk$8| #b00110010)
(= |a$r_buff0_thd4#2$rclk$8| #b10111000)
(= |a$r_buff0_thd4#6$wclk$8| #b11101011)
(= |a$r_buff0_thd4#9$wclk$8| #b11110000)
(= |a$r_buff0_thd4#4$rclk$8| #b11101011)
(= |a$r_buff0_thd4#7$rclk$8| #b11110000)
(= |a$r_buff1_thd0#11$wclk$8| #b10111000)
(= |a$r_buff1_thd0#2$rclk$8| #b11111100)
(= |a$r_buff1_thd0#1$wclk$8| #b00110011)
(= |a$r_buff1_thd0#10$rclk$8| #b10111000)
(= |a$r_buff1_thd0#8$wclk$8| #b11111100)
(= |a$r_buff1_thd1#1$wclk$8| #b01011000)
(= |a$r_buff1_thd1#3$rclk$8| #b10111000)
(= |a$r_buff1_thd1#5$rclk$8| #b11110001)
(= |a$r_buff1_thd2#1$wclk$8| #b01100001)
(= |a$r_buff1_thd2#3$rclk$8| #b10111000)
(= |a$r_buff1_thd2#7$wclk$8| #b11011010)
(= |a$r_buff1_thd2#5$rclk$8| #b11011010)
(= |a$r_buff1_thd2#4$wclk$8| #b10111000)
(= |a$r_buff1_thd3#1$wclk$8| #b01100010)
(= |a$r_buff1_thd3#3$rclk$8| #b10111000)
(= |a$r_buff1_thd3#7$wclk$8| #b11101101)
(= |a$r_buff1_thd3#5$rclk$8| #b11101101)
(= |a$r_buff1_thd3#4$wclk$8| #b10111000)
(= |a$r_buff1_thd4#1$wclk$8| #b10000000)
(= |a$r_buff1_thd4#3$rclk$8| #b10111000)
(= |a$r_buff1_thd4#7$wclk$8| #b11101011)
(= |a$r_buff1_thd4#10$wclk$8| #b11110000)
(= |a$r_buff1_thd4#5$rclk$8| #b11101011)
(= |a$r_buff1_thd4#4$wclk$8| #b10111000)
(= |a$r_buff1_thd4#8$rclk$8| #b11110000)
(= |a$w_buff0#6$wclk$8| #b10111000)
(= |a$w_buff0#2$rclk$8| #b11111100)
(= |a$w_buff0#15$wclk$8| #b11101011)
(= |a$w_buff0#1$wclk$8| #b10000011)
(= |a$w_buff0#4$rclk$8| #b10111000)
(= |a$w_buff0#7$rclk$8| #b11110001)
(= |a$w_buff0#9$rclk$8| #b11011010)
(= |a$w_buff0#11$rclk$8| #b11101101)
(= |a$w_buff0#13$rclk$8| #b11101011)
(= |a$w_buff0#16$rclk$8| #b11110000)
(= |a$w_buff0_used#13$wclk$8| #b10111000)
(= |a$w_buff0_used#2$rclk$8| #b11111100)
(= |a$w_buff0_used#22$wclk$8| #b11110001)
(= |a$w_buff0_used#25$wclk$8| #b11011010)
(= |a$w_buff0_used#28$wclk$8| #b11101101)
(= |a$w_buff0_used#31$wclk$8| #b11101011)
(= |a$w_buff0_used#34$wclk$8| #b11110000)
(= |a$w_buff0_used#1$wclk$8| #b10000100)
(= |a$w_buff0_used#11$rclk$8| #b10111000)
(= |a$w_buff0_used#10$wclk$8| #b11111100)
(= |a$w_buff0_used#14$rclk$8| #b11110001)
(= |a$w_buff0_used#23$rclk$8| #b11011010)
(= |a$w_buff0_used#26$rclk$8| #b11101101)
(= |a$w_buff0_used#29$rclk$8| #b11101011)
(= |a$w_buff0_used#32$rclk$8| #b11110000)
(= |a$w_buff1#4$wclk$8| #b10111000)
(= |a$w_buff1#2$rclk$8| #b11111100)
(= |a$w_buff1#13$wclk$8| #b11101011)
(= |a$w_buff1#1$wclk$8| #b10000101)
(= |a$w_buff1#5$rclk$8| #b11110001)
(= |a$w_buff1#7$rclk$8| #b11011010)
(= |a$w_buff1#9$rclk$8| #b11101101)
(= |a$w_buff1#11$rclk$8| #b11101011)
(= |a$w_buff1#14$rclk$8| #b11110000)
(= |a$w_buff1_used#9$wclk$8| #b10111000)
(= |a$w_buff1_used#2$rclk$8| #b11111100)
(= |a$w_buff1_used#16$wclk$8| #b11110001)
(= |a$w_buff1_used#19$wclk$8| #b11011010)
(= |a$w_buff1_used#22$wclk$8| #b11101101)
(= |a$w_buff1_used#25$wclk$8| #b11101011)
(= |a$w_buff1_used#28$wclk$8| #b11110000)
(= |a$w_buff1_used#1$wclk$8| #b10000110)
(= |a$w_buff1_used#10$rclk$8| #b11110001)
(= |a$w_buff1_used#8$wclk$8| #b11111100)
(= |a$w_buff1_used#17$rclk$8| #b11011010)
(= |a$w_buff1_used#20$rclk$8| #b11101101)
(= |a$w_buff1_used#23$rclk$8| #b11101011)
(= |a$w_buff1_used#26$rclk$8| #b11110000)
(= |main$tmp_guard1#5| #b00000000)
(= |y#4$wclk$8| #b10111011)
(= |y#2$rclk$8| #b11111101)
(= |y#5$wclk$8| #b11011011)
(= |z#1$wclk$8| #b10100010)
(= |z#2$rclk$8| #b11011100)
(= |z#4$wclk$8| #b11100111)
(= |z#5$rclk$8| #b11101010)
(= |__unbuffered_p2_EAX#1$wclk$8| #b00011010)
(= |__unbuffered_p3_EAX#1$wclk$8| #b00011011)
(= |__unbuffered_p3_EBX#1$wclk$8| #b00011100)
(= |a$flush_delayed#1$wclk$8| #b00011110)
(= |a$flush_delayed#3$wclk$8| #b11101011)
(= |a$mem_tmp#1$wclk$8| #b00011111)
(= |a$mem_tmp#2$wclk$8| #b11101011)
(= |a$r_buff0_thd1#5$wclk$8| #b10111000)
(= |a$r_buff0_thd1#14$wclk$8| #b11110001)
(= |a$r_buff1_thd1#4$wclk$8| #b10111000)
(= |a$r_buff1_thd1#11$wclk$8| #b11110001)
(= |y#1$wclk$8| #b10001110)
(= |weak$$choice0#1$wclk$8| #b10001001)
(= |weak$$choice0#2$wclk$8| #b11101011)
(= |weak$$choice2#1$wclk$8| #b10001010)
(= |weak$$choice2#2$wclk$8| #b11101011)
(= t1$45$spwnclk$8 #b10101010)
(= t1$50$spwnclk$8 #b10101110)
(= t1$55$spwnclk$8 #b10110010)
(= t1$60$spwnclk$8 #b10110110)
(= |main::1::t572!0@1$wclk$8| #b00000000)
(= |main::1::t573!0@1$wclk$8| #b00001000)
(= |main::1::t574!0@1$wclk$8| #b00001100)
(= |__CPROVER_dead_object#1$wclk$8| #b00010000)
(= |__CPROVER_deallocated#1$wclk$8| #b00010001)
(= |__CPROVER_malloc_is_new_array#1$wclk$8| #b00010010)
(= |__CPROVER_malloc_object#1$wclk$8| #b00010011)
(= |__CPROVER_malloc_size#1$wclk$8| #b00010100)
(= |__CPROVER_memory_leak#1$wclk$8| #b00010101)
(= |__CPROVER_next_thread_id#1$wclk$8| #b00010110)
(= |__CPROVER_pipe_count#1$wclk$8| #b00010111)
(= |a$read_delayed#1$wclk$8| #b10000001)
(= |a$read_delayed_var#1$wclk$8| #b10000010)
(= |main$tmp_guard0#1$wclk$8| #b10000111)
(= |main$tmp_guard1#1$wclk$8| #b10001000)
(= |main::1::t571!0@1#1$wclk$8| #b10100100)
(= |__CPROVER_next_thread_id#2$wclk$8| #b10100110)
(= |main::1::t571!0@1#2$wclk$8| #b10101001)
(= |main::1::t572!0@1#1$wclk$8| #b10101011)
(= |__CPROVER_next_thread_id#3$rclk$8| #b10101100)
(= |__CPROVER_next_thread_id#5$wclk$8| #b10101100)
(= |main::1::t572!0@1#2$wclk$8| #b10101101)
(= |main::1::t573!0@1#1$wclk$8| #b10101111)
(= |__CPROVER_next_thread_id#6$rclk$8| #b10110000)
(= |__CPROVER_next_thread_id#8$wclk$8| #b10110000)
(= |main::1::t573!0@1#2$wclk$8| #b10110001)
(= |main::1::t574!0@1#1$wclk$8| #b10110011)
(= |__CPROVER_next_thread_id#9$rclk$8| #b10110100)
(= |__CPROVER_next_thread_id#11$wclk$8| #b10110100)
(= |main::1::t574!0@1#2$wclk$8| #b10110101)
(= |main$tmp_guard0#2$wclk$8| #b11111010)
(= |main$tmp_guard0#3$rclk$8| #b11111011)
(= |a$r_buff0_thd0#2$rclk$8| #b11111100)
(= |main$tmp_guard1#3$rclk$8| #b11111101)
(= |main$tmp_guard1#4$wclk$8| #b11111101)
(= |main$tmp_guard1#5$rclk$8| #b11111110)
(= |main$tmp_guard1#6$rclk$8| #b11111111)
(= array_of.0 @fun_9)
(= |__CPROVER_threads_exited#2| @fun_7)
(= |__CPROVER_threads_exited#4| @fun_7)
(= |__CPROVER_threads_exited#6| @fun_9)
(= |__CPROVER_threads_exited#8| @fun_7)
(function @fun_9
 (type (Array (_ BitVec 32) (_ BitVec 1)))
 (= (@fun_9 #b10000000000000000000000000000000) #b0)
 (= (@fun_9 #b00000000000000000000000000000000) #b0)
 (default #b1))
(function @fun_7
 (type (Array (_ BitVec 32) (_ BitVec 1)))
 (= (@fun_7 #b10000000000000000000000000000000) #b0)
 (default #b1))

real	0m0.042s
user	0m0.039s
sys	0m0.003s
State: AC Run_time: 0.04404401779174805